tsp_instances/TSP50/instance115.tsp
NODE_COORD_SECTION
0 163 63
1 19 101
2 70 200
3 21 72
4 33 152
5 104 116
6 22 40
7 179 85
8 156 56
9 131 127
10 191 172
11 64 100
12 35 132
13 93 198
14 49 89
15 44 200
16 56 7
17 86 7
18 110 173
19 103 31
20 67 51
21 134 133
22 49 200
23 30 42
24 152 45
25 51 100
26 112 151
27 1 38
28 174 87
29 12 78
30 74 49
31 45 12
32 61 172
33 165 154
34 166 152
35 49 126
36 163 38
37 56 180
38 63 103
39 20 143
40 51 126
41 185 43
42 44 183
43 93 150
44 155 116
45 138 159
46 44 58
47 129 140
48 63 59
49 67 77
