tsp_instances/TSP50/instance115.opt.tour
TOUR_SECTION
1
8
29
45
35
34
11
46
48
22
10
6
44
27
19
14
3
23
16
43
38
33
5
40
13
36
41
39
12
26
15
2
30
4
28
7
24
47
50
49
21
31
32
17
18
20
25
37
42
9
-1